0 3092
3 3089
7 3054
14 3017
17 3005
24 3000
26 2963
28 2946
30 2936
35 2930
36 2904
40 2851
47 2812
63 2800
72 2798
97 2784
105 2781
126 2775
1824 2765
2024 2754
2140 2752
2162 2742
7043 2740
8808 2735
